# Solution for model GasLib-40
# Objective value = 1.3676838280438830e+01
loadshed[innode_1] 0
loadshed[innode_2] 0
loadshed[innode_3] 0
loadshed[innode_4] 0
loadshed[innode_5] 0
loadshed[innode_6] 0
loadshed[innode_7] 0
loadshed[innode_8] 0
loadshed[source_1] -0.208192571063456
loadshed[source_2] -3.8493625494182782e-02
loadshed[source_3] 3.3319903259462724e-01
loadshed[sink_1] 0
loadshed[sink_2] 0
loadshed[sink_3] 0
loadshed[sink_4] 0
loadshed[sink_5] 0
loadshed[sink_6] 0
loadshed[sink_7] 0
loadshed[sink_8] 0
loadshed[sink_9] 0
loadshed[sink_10] 0
loadshed[sink_11] 0
loadshed[sink_12] 8.3629074835804307e-01
loadshed[sink_13] 0
loadshed[sink_14] 0
loadshed[sink_15] 0
loadshed[sink_16] 0
loadshed[sink_17] 0
loadshed[sink_18] 0
loadshed[sink_19] 0
loadshed[sink_20] 0
loadshed[sink_21] 0
loadshed[sink_22] 0
loadshed[sink_23] 0
loadshed[sink_24] 0
loadshed[sink_25] 0
loadshed[sink_26] 0
loadshed[sink_27] 0
loadshed[sink_28] 0
loadshed[sink_29] 0
flow[source_1,sink_3] 1.9100349916846926e+02
flow[innode_1,sink_16] 1.6354166666666970e+01
flow[innode_6,sink_13] 9.0644165070602440e+00
flow[sink_13,sink_14] -7.2897501596064238e+00
flow[sink_14,sink_10] -23.6439168262732
flow[sink_25,sink_26] 2.3163566171956484e+02
flow[sink_26,sink_9] 1.3080659961619980e+02
flow[sink_9,sink_18] 1.1445243294953313e+02
flow[sink_26,sink_4] 8.4474895436698262e+01
flow[sink_4,sink_20] 1.6354166666668277e+01
flow[sink_18,sink_6] 9.8098266282866462e+01
flow[sink_25,innode_8] -1.5829516583513288e+02
flow[sink_6,sink_7] 4.9035766282866007e+01
flow[sink_6,sink_22] 3.2708333333333641e+01
flow[sink_7,sink_24] 3.5385661719561178e+01
flow[sink_22,sink_1] 1.6354166666666970e+01
flow[sink_24,sink_21] 1.9031495052894506e+01
flow[sink_21,sink_12] 2.6773283862278370e+00
flow[sink_7,sink_5] -2.7040621033616929e+00
flow[sink_5,sink_17] -1.9058228770028450e+01
flow[sink_17,sink_4] -5.1766562103363640e+01
flow[sink_17,sink_8] 1.6354166666668334e+01
flow[sink_3,sink_23] 16.3541666666697
flow[sink_8,sink_20] 0
flow[sink_25,sink_20] 0
flow[sink_25,sink_15] -9.8759079058158974e+01
flow[sink_15,sink_29] -6.4015507904529372e+01
flow[sink_29,sink_28] 1.6354166666667879e+01
flow[sink_29,sink_2] 6.7451904486962945e+01
flow[sink_2,sink_15] 5.1097737820296274e+01
flow[sink_29,innode_7] -1.6417574572482687e+02
flow[innode_4,sink_19] 4.0291172381497958e+01
flow[sink_19,innode_3] 7.2706416826273454e+01
flow[innode_4,innode_5] 6.5123577778108356e+01
flow[sink_27,innode_5] -6.5123577778108356e+01
flow[sink_27,sink_19] 4.8769411111441691e+01
flow[sink_10,sink_11] 3.2708333333333641e+01
flow[sink_10,innode_2] 0
flow[sink_10,innode_3] -7.2706416826273454e+01
flow[innode_6,sink_25] -9.0644165070602440e+00
flow[sink_11,innode_1] 1.6354166666666970e+01
flow[sink_19,innode_2] 0
flow[source_3,innode_4] 1.0541475015960631e+02
flow[source_2,innode_7] 1.6417574572482687e+02
flow[sink_3,innode_8] 1.5829516583513288e+02
pressure[innode_1] 7.5197356250430687e+01
pressure[innode_2] 7.5349057558034232e+01
pressure[innode_3] 7.9219951817379936e+01
pressure[innode_4] 81.01325
pressure[innode_5] 8.0968454569227319e+01
pressure[innode_6] 74.2676584762014
pressure[innode_7] 81.01325
pressure[innode_8] 8.0374798268261216e+01
pressure[source_1] 81.01325
pressure[source_2] 81.01325
pressure[source_3] 81.01325
pressure[sink_1] 4.1262758715709019e+01
pressure[sink_2] 74.9135590948597
pressure[sink_3] 8.0374798268261216e+01
pressure[sink_4] 4.7213338016761540e+01
pressure[sink_5] 4.3815290421600217e+01
pressure[sink_6] 4.3363836326096390e+01
pressure[sink_7] 4.2690692138608973e+01
pressure[sink_8] 4.4617905512719481e+01
pressure[sink_9] 5.0124582263802992e+01
pressure[sink_10] 7.5349057558034232e+01
pressure[sink_11] 7.5197356250430687e+01
pressure[sink_12] 1.0132499999999998e+00
pressure[sink_13] 74.2176878628027
pressure[sink_14] 7.4230733491662733e+01
pressure[sink_15] 7.4746736242636459e+01
pressure[sink_16] 74.175706415613
pressure[sink_17] 4.5234990708133104e+01
pressure[sink_18] 4.5983352112771435e+01
pressure[sink_19] 7.9380951944333162e+01
pressure[sink_20] 4.6013520307369966e+01
pressure[sink_21] 1.9659899705732116e+00
pressure[sink_22] 4.2326527858064026e+01
pressure[sink_23] 8.0210080256601429e+01
pressure[sink_24] 2.1767460959162737e+00
pressure[sink_25] 74.2676584762014
pressure[sink_26] 57.9536948533728
pressure[sink_27] 8.0428049209101815e+01
pressure[sink_28] 7.6326909685988653e+01
pressure[sink_29] 7.6622191959605829e+01
interdiction[source_1,sink_3] 0
interdiction[innode_1,sink_16] 0
interdiction[innode_6,sink_13] 0
interdiction[sink_13,sink_14] 0
interdiction[sink_14,sink_10] 0
interdiction[sink_25,sink_26] 0
interdiction[sink_26,sink_9] 0
interdiction[sink_9,sink_18] 0
interdiction[sink_26,sink_4] 0
interdiction[sink_4,sink_20] 0
interdiction[sink_18,sink_6] 0
interdiction[sink_25,innode_8] 0
interdiction[sink_6,sink_7] 0
interdiction[sink_6,sink_22] 0
interdiction[sink_7,sink_24] 0
interdiction[sink_22,sink_1] 0
interdiction[sink_24,sink_21] 0
interdiction[sink_21,sink_12] 0
interdiction[sink_7,sink_5] 0
interdiction[sink_5,sink_17] 0
interdiction[sink_17,sink_4] 0
interdiction[sink_17,sink_8] 0
interdiction[sink_3,sink_23] 0
interdiction[sink_8,sink_20] 1
interdiction[sink_25,sink_20] 1
interdiction[sink_25,sink_15] 0
interdiction[sink_15,sink_29] 0
interdiction[sink_29,sink_28] 0
interdiction[sink_29,sink_2] 0
interdiction[sink_2,sink_15] 0
interdiction[sink_29,innode_7] 0
interdiction[innode_4,sink_19] 0
interdiction[sink_19,innode_3] 0
interdiction[innode_4,innode_5] 0
interdiction[sink_27,innode_5] 0
interdiction[sink_27,sink_19] 0
interdiction[sink_10,sink_11] 0
interdiction[sink_10,innode_2] 0
interdiction[sink_10,innode_3] 0
interdiction[innode_6,sink_25] 0
interdiction[sink_11,innode_1] 0
interdiction[sink_19,innode_2] 1
interdiction[source_3,innode_4] 0
interdiction[source_2,innode_7] 0
interdiction[sink_3,innode_8] 0
WCcheckFlow[source_1,sink_3] 39
WCcheckFlow[innode_1,sink_16] 1
WCcheckFlow[innode_6,sink_13] 13
WCcheckFlow[sink_13,sink_14] 12
WCcheckFlow[sink_14,sink_10] 11
WCcheckFlow[sink_25,sink_26] 15
WCcheckFlow[sink_26,sink_9] 12
WCcheckFlow[sink_9,sink_18] 11
WCcheckFlow[sink_26,sink_4] 2
WCcheckFlow[sink_4,sink_20] 1
WCcheckFlow[sink_18,sink_6] 10
WCcheckFlow[sink_25,innode_8] -36
WCcheckFlow[sink_6,sink_7] 7
WCcheckFlow[sink_6,sink_22] 2
WCcheckFlow[sink_7,sink_24] 3
WCcheckFlow[sink_22,sink_1] 1
WCcheckFlow[sink_24,sink_21] 2
WCcheckFlow[sink_21,sink_12] 1
WCcheckFlow[sink_7,sink_5] 3
WCcheckFlow[sink_5,sink_17] 2
WCcheckFlow[sink_17,sink_4] 0
WCcheckFlow[sink_17,sink_8] 1
WCcheckFlow[sink_3,sink_23] 1
WCcheckFlow[sink_8,sink_20] 0
WCcheckFlow[sink_25,sink_20] 0
WCcheckFlow[sink_25,sink_15] 6
WCcheckFlow[sink_15,sink_29] 5
WCcheckFlow[sink_29,sink_28] 1
WCcheckFlow[sink_29,sink_2] 1
WCcheckFlow[sink_2,sink_15] 0
WCcheckFlow[sink_29,innode_7] 2
WCcheckFlow[innode_4,sink_19] -4
WCcheckFlow[sink_19,innode_3] -5
WCcheckFlow[innode_4,innode_5] 2
WCcheckFlow[sink_27,innode_5] -1
WCcheckFlow[sink_27,sink_19] 0
WCcheckFlow[sink_10,sink_11] 3
WCcheckFlow[sink_10,innode_2] 1
WCcheckFlow[sink_10,innode_3] 6
WCcheckFlow[innode_6,sink_25] -14
WCcheckFlow[sink_11,innode_1] 2
WCcheckFlow[sink_19,innode_2] 0
WCcheckFlow[source_3,innode_4] -1
WCcheckFlow[source_2,innode_7] -1
WCcheckFlow[sink_3,innode_8] 37
